Route #1: 16 9 87 97 74
Route #2: 65 59 75 52 86 99 0 8 46 3 1 4
Route #3: 92 95 64 83 82 98 69 0 71 38 40 41 0 53 10 13 17 60
Route #4: 14 47 15 11 12 0 23 21 18 19 0 90 57 22 20 49 24
Route #5: 5 45 2 7 88 0 94 96 54 93 91 80
Route #6: 78 73 79 6 55 0 66 89 48 25 77 58
Route #7: 63 33 28 27 29 31 30 62 67 0 51 76 85 84 56 0 68 37 35 43 70 100
Route #8: 72 36 39 42 44 61 81 0 50 34 26 32
Cost: 18712
Optimal: True
